c Sudoku solution
p cnf 729 0
165 0
183 0
237 0
249 0
271 0
323 0
377 0
395 0
425 0
215 0
431 0
489 0
497 0
518 0
561 0
585 0
596 0
668 0
478 0
782 0
798 0
827 0
987 0
617 0
767 0
834 0
852 0
848 0
875 0
929 0
938 0
912 0
735 0
869 0
779 0
199 0
319 0
754 0
453 0
263 0
966 0
886 0
176 0
292 0
132 0
336 0
256 0
681 0
147 0
557 0
659 0
645 0
446 0
462 0
544 0
414 0
522 0
626 0
672 0
573 0
694 0
539 0
633 0
111 0
158 0
351 0
124 0
228 0
284 0
388 0
813 0
721 0
716 0
743 0
891 0
941 0
955 0
342 0
364 0
974 0
993 0
